n_machines = 5;
n_resources = 8;
n_jobs = 23;
horizon = 1042;
LB = 215;
n_jobs_per_resource = [2, 4, 4, 3, 2, 4, 2, 2];
duration = [75, 89, 71, 81, 39, 24, 27, 12, 37, 55, 67, 57, 88, 48, 27, 38, 25, 67, 41, 24, 24, 23, 3]